p edge 40 321
e 1 3
e 1 7
e 1 10
e 1 14
e 1 21
e 1 22
e 1 24
e 1 25
e 1 28
e 1 29
e 1 30
e 1 31
e 1 32
e 1 35
e 1 36
e 2 4
e 2 6
e 2 8
e 2 9
e 2 10
e 2 13
e 2 14
e 2 18
e 2 19
e 2 21
e 2 22
e 2 24
e 2 26
e 2 29
e 2 30
e 2 31
e 2 37
e 2 39
e 2 40
e 3 7
e 3 9
e 3 15
e 3 22
e 3 24
e 3 25
e 3 26
e 3 27
e 3 30
e 3 31
e 3 33
e 3 34
e 3 36
e 3 37
e 3 40
e 4 6
e 4 9
e 4 10
e 4 11
e 4 12
e 4 15
e 4 16
e 4 19
e 4 22
e 4 23
e 4 25
e 4 26
e 4 27
e 4 31
e 4 33
e 4 34
e 4 39
e 5 7
e 5 9
e 5 13
e 5 14
e 5 15
e 5 17
e 5 24
e 5 29
e 5 30
e 5 31
e 5 34
e 5 35
e 5 37
e 5 38
e 5 39
e 6 7
e 6 8
e 6 9
e 6 10
e 6 11
e 6 12
e 6 13
e 6 17
e 6 18
e 6 19
e 6 22
e 6 23
e 6 29
e 6 31
e 6 32
e 6 33
e 6 34
e 6 35
e 6 36
e 7 9
e 7 10
e 7 11
e 7 16
e 7 21
e 7 25
e 7 26
e 7 29
e 7 30
e 8 9
e 8 10
e 8 11
e 8 12
e 8 13
e 8 17
e 8 18
e 8 19
e 8 21
e 8 22
e 8 27
e 8 29
e 8 31
e 8 36
e 8 39
e 8 40
e 9 13
e 9 14
e 9 16
e 9 17
e 9 21
e 9 24
e 9 26
e 9 27
e 9 31
e 9 33
e 9 37
e 9 39
e 10 14
e 10 16
e 10 17
e 10 18
e 10 20
e 10 22
e 10 26
e 10 30
e 10 32
e 10 39
e 11 19
e 11 21
e 11 31
e 11 32
e 11 33
e 11 34
e 11 35
e 11 37
e 11 38
e 11 39
e 11 40
e 12 15
e 12 16
e 12 17
e 12 21
e 12 23
e 12 25
e 12 26
e 12 27
e 12 28
e 12 31
e 12 34
e 12 35
e 12 36
e 12 39
e 12 40
e 13 19
e 13 20
e 13 27
e 13 28
e 13 29
e 13 30
e 13 31
e 13 35
e 13 37
e 13 38
e 13 39
e 14 16
e 14 17
e 14 22
e 14 23
e 14 24
e 14 25
e 14 34
e 14 38
e 14 40
e 15 17
e 15 20
e 15 21
e 15 23
e 15 25
e 15 27
e 15 30
e 15 36
e 15 38
e 15 39
e 15 40
e 16 17
e 16 18
e 16 20
e 16 31
e 16 35
e 16 37
e 17 20
e 17 23
e 17 26
e 17 27
e 17 28
e 17 29
e 17 31
e 17 37
e 17 40
e 18 20
e 18 21
e 18 22
e 18 24
e 18 29
e 18 32
e 18 34
e 18 36
e 18 37
e 18 38
e 18 39
e 19 20
e 19 23
e 19 28
e 19 29
e 19 32
e 19 33
e 19 36
e 19 37
e 20 21
e 20 24
e 20 28
e 20 30
e 20 33
e 20 36
e 20 37
e 20 40
e 21 22
e 21 23
e 21 24
e 21 25
e 21 28
e 21 32
e 21 33
e 21 38
e 21 39
e 22 23
e 22 25
e 22 26
e 22 31
e 22 32
e 22 33
e 22 34
e 22 37
e 23 24
e 23 25
e 23 32
e 23 33
e 23 35
e 23 39
e 24 25
e 24 26
e 24 30
e 24 31
e 24 35
e 24 38
e 25 33
e 25 36
e 25 39
e 26 29
e 26 31
e 26 32
e 26 33
e 26 34
e 26 35
e 26 40
e 27 30
e 27 37
e 27 39
e 27 40
e 28 29
e 28 32
e 28 35
e 28 37
e 28 39
e 29 31
e 29 35
e 29 36
e 29 37
e 29 38
e 29 39
e 29 40
e 30 32
e 30 34
e 30 39
e 30 40
e 31 34
e 31 36
e 31 37
e 31 38
e 32 34
e 32 36
e 33 35
e 33 36
e 33 37
e 34 35
e 34 37
e 34 39
e 36 39
e 36 40
e 37 40
e 38 39
